p edge 30 152 21
e 1 4
e 1 5
e 1 6
e 1 10
e 1 11
e 1 12
e 1 14
e 1 16
e 1 17
e 1 19
e 1 21
e 1 28
e 1 30
e 2 4
e 2 7
e 2 9
e 2 13
e 2 14
e 2 16
e 2 20
e 2 23
e 2 29
e 3 8
e 3 9
e 3 10
e 3 14
e 3 15
e 3 17
e 3 18
e 3 29
e 4 12
e 4 13
e 4 15
e 4 17
e 4 20
e 4 21
e 4 22
e 4 24
e 4 25
e 4 30
e 5 6
e 5 17
e 5 19
e 5 20
e 5 24
e 5 25
e 5 26
e 5 28
e 6 9
e 6 10
e 6 16
e 6 18
e 6 19
e 6 20
e 6 21
e 6 24
e 6 26
e 6 27
e 7 11
e 7 13
e 7 16
e 7 23
e 7 27
e 7 28
e 7 30
e 8 9
e 8 10
e 8 13
e 8 18
e 8 19
e 8 21
e 8 24
e 8 26
e 8 27
e 8 29
e 9 12
e 9 23
e 9 25
e 9 26
e 9 29
e 9 30
e 10 11
e 10 15
e 10 20
e 10 22
e 10 24
e 11 13
e 11 19
e 11 21
e 11 23
e 11 24
e 11 26
e 11 27
e 12 16
e 12 19
e 12 21
e 12 25
e 12 27
e 13 16
e 13 20
e 13 23
e 14 15
e 14 17
e 14 19
e 14 24
e 14 27
e 14 29
e 15 16
e 15 21
e 15 23
e 15 24
e 15 28
e 16 27
e 16 29
e 16 30
e 17 18
e 17 20
e 17 23
e 17 25
e 17 28
e 18 19
e 18 22
e 18 23
e 18 29
e 18 30
e 19 23
e 19 24
e 19 27
e 19 28
e 19 29
e 19 30
e 20 24
e 20 26
e 20 27
e 20 29
e 21 25
e 21 26
e 21 27
e 22 24
e 22 29
e 23 25
e 23 27
e 23 28
e 23 30
e 24 25
e 24 29
e 24 30
e 25 26
e 25 28
e 26 27
e 26 28
e 26 30
